p tdp 16 66
1 3
1 5
1 9
1 13
1 14
2 3
2 4
2 5
2 7
2 10
2 11
2 12
2 13
2 14
2 15
3 4
3 7
3 9
3 11
3 14
3 15
3 16
4 6
4 9
4 11
4 13
4 15
4 16
5 6
5 8
5 9
5 11
5 14
5 16
6 7
6 8
6 10
6 12
6 15
6 16
7 8
7 9
7 10
7 11
7 13
7 14
7 16
8 9
9 10
9 11
9 13
9 14
10 12
10 13
10 14
11 13
11 14
11 15
11 16
12 14
12 15
12 16
13 15
14 15
14 16
15 16
